min: c;

c = 3.92447896545527 * u5_t4_h2 + 3.92447896545527 * u5_t7_h2 + 3.36456230969725 * u5_t4_h3 + 3.36456230969725 * u5_t7_h3 + 3.08645707645783 * u5_t1_h4 + 3.08645707645783 * u5_t3_h4 + 3.08645707645783 * u5_t4_h4 + 3.08645707645783 * u5_t7_h4 + 3.58453817480728 * u5_t1_h5 + 3.58453817480728 * u5_t3_h5 + 3.58453817480728 * u5_t4_h5 + 3.58453817480728 * u5_t7_h5 + 3.49922561145857 * u5_t1_h6 + 3.49922561145857 * u5_t3_h6 + 3.49922561145857 * u5_t4_h6 + 3.49922561145857 * u5_t6_h6 + 3.49922561145857 * u5_t7_h6 + 4.40143526202266 * u5_t1_h7 + 4.40143526202266 * u5_t3_h7 + 4.40143526202266 * u5_t4_h7 + 4.40143526202266 * u5_t6_h7 + 5.14716844275582 * u5_t1_h8 + 5.14716844275582 * u5_t3_h8 + 5.14716844275582 * u5_t4_h8 + 5.14716844275582 * u5_t6_h8 + 5.31289168102192 * u5_t1_h9 + 5.31289168102192 * u5_t3_h9 + 5.31289168102192 * u5_t4_h9 + 5.31289168102192 * u5_t6_h9 + 5.45200382040061 * u5_t1_h10 + 5.45200382040061 * u5_t3_h10 + 5.45200382040061 * u5_t4_h10 + 5.45200382040061 * u5_t6_h10 + 4.15640528850409 * u5_t1_h11 + 4.15640528850409 * u5_t3_h11 + 4.15640528850409 * u5_t4_h11 + 4.15640528850409 * u5_t6_h11 + 6.35948131717337 * u5_t1_h12 + 6.35948131717337 * u5_t3_h12 + 6.35948131717337 * u5_t4_h12 + 6.35948131717337 * u5_t6_h12 + 4.16797429509129 * u5_t1_h13 + 4.16797429509129 * u5_t3_h13 + 4.16797429509129 * u5_t4_h13 + 4.16797429509129 * u5_t6_h13 + 4.16797429509129 * u5_t8_h13 + 5.80626981458412 * u5_t1_h14 + 5.80626981458412 * u5_t3_h14 + 5.80626981458412 * u5_t4_h14 + 5.80626981458412 * u5_t6_h14 + 5.80626981458412 * u5_t8_h14 + 5.87162331023264 * u5_t1_h15 + 5.87162331023264 * u5_t3_h15 + 5.87162331023264 * u5_t4_h15 + 5.87162331023264 * u5_t6_h15 + 5.87162331023264 * u5_t8_h15 + 5.87162331023264 * u5_t9_h15 + 5.61406774419113 * u5_t1_h16 + 5.61406774419113 * u5_t3_h16 + 5.61406774419113 * u5_t4_h16 + 5.61406774419113 * u5_t5_h16 + 5.61406774419113 * u5_t6_h16 + 5.61406774419113 * u5_t8_h16 + 5.61406774419113 * u5_t9_h16 + 6.56620461049385 * u5_t1_h17 + 6.56620461049385 * u5_t5_h17 + 6.56620461049385 * u5_t6_h17 + 6.56620461049385 * u5_t8_h17 + 6.56620461049385 * u5_t9_h17 + 6.56620461049385 * u5_t10_h17 + 6.17375586095476 * u5_t1_h18 + 6.17375586095476 * u5_t2_h18 + 6.17375586095476 * u5_t5_h18 + 6.17375586095476 * u5_t6_h18 + 6.17375586095476 * u5_t9_h18 + 6.17375586095476 * u5_t10_h18 + 5.97020433925531 * u5_t1_h19 + 5.97020433925531 * u5_t2_h19 + 5.97020433925531 * u5_t5_h19 + 5.97020433925531 * u5_t9_h19 + 5.97020433925531 * u5_t10_h19 + 5.14203416966082 * u5_t1_h20 + 5.14203416966082 * u5_t2_h20 + 5.14203416966082 * u5_t5_h20 + 5.14203416966082 * u5_t9_h20 + 5.14203416966082 * u5_t10_h20 + 5.38009330766337 * u5_t2_h21 + 5.38009330766337 * u5_t5_h21 + 5.38009330766337 * u5_t9_h21 + 5.38009330766337 * u5_t10_h21 + 5.23886569223511 * u5_t2_h22 + 5.23886569223511 * u5_t5_h22 + 5.23886569223511 * u5_t9_h22 + 5.23886569223511 * u5_t10_h22 + 5.55751518213488 * u5_t5_h23 + 5.55751518213488 * u5_t9_h23 + 5.55751518213488 * u5_t10_h23;
0 <= u5_t1_h4 <= 1;
0 <= u5_t1_h5 <= 1;
0 <= u5_t1_h6 <= 1;
0 <= u5_t1_h7 <= 1;
0 <= u5_t1_h8 <= 1;
0 <= u5_t1_h9 <= 1;
0 <= u5_t1_h10 <= 1;
0 <= u5_t1_h11 <= 1;
0 <= u5_t1_h12 <= 1;
0 <= u5_t1_h13 <= 1;
0 <= u5_t1_h14 <= 1;
0 <= u5_t1_h15 <= 1;
0 <= u5_t1_h16 <= 1;
0 <= u5_t1_h17 <= 1;
0 <= u5_t1_h18 <= 1;
0 <= u5_t1_h19 <= 1;
0 <= u5_t1_h20 <= 1;
u5_t1_h4 + u5_t1_h5 + u5_t1_h6 + u5_t1_h7 + u5_t1_h8 + u5_t1_h9 + u5_t1_h10 + u5_t1_h11 + u5_t1_h12 + u5_t1_h13 + u5_t1_h14 + u5_t1_h15 + u5_t1_h16 + u5_t1_h17 + u5_t1_h18 + u5_t1_h19 + u5_t1_h20 = 1;
0 <= u5_t2_h18 <= 1;
0 <= u5_t2_h19 <= 1;
0 <= u5_t2_h20 <= 1;
0 <= u5_t2_h21 <= 1;
0 <= u5_t2_h22 <= 1;
u5_t2_h18 + u5_t2_h19 + u5_t2_h20 + u5_t2_h21 + u5_t2_h22 = 3;
0 <= u5_t3_h4 <= 1;
0 <= u5_t3_h5 <= 1;
0 <= u5_t3_h6 <= 1;
0 <= u5_t3_h7 <= 1;
0 <= u5_t3_h8 <= 1;
0 <= u5_t3_h9 <= 1;
0 <= u5_t3_h10 <= 1;
0 <= u5_t3_h11 <= 1;
0 <= u5_t3_h12 <= 1;
0 <= u5_t3_h13 <= 1;
0 <= u5_t3_h14 <= 1;
0 <= u5_t3_h15 <= 1;
0 <= u5_t3_h16 <= 1;
u5_t3_h4 + u5_t3_h5 + u5_t3_h6 + u5_t3_h7 + u5_t3_h8 + u5_t3_h9 + u5_t3_h10 + u5_t3_h11 + u5_t3_h12 + u5_t3_h13 + u5_t3_h14 + u5_t3_h15 + u5_t3_h16 = 1;
0 <= u5_t4_h2 <= 1;
0 <= u5_t4_h3 <= 1;
0 <= u5_t4_h4 <= 1;
0 <= u5_t4_h5 <= 1;
0 <= u5_t4_h6 <= 1;
0 <= u5_t4_h7 <= 1;
0 <= u5_t4_h8 <= 1;
0 <= u5_t4_h9 <= 1;
0 <= u5_t4_h10 <= 1;
0 <= u5_t4_h11 <= 1;
0 <= u5_t4_h12 <= 1;
0 <= u5_t4_h13 <= 1;
0 <= u5_t4_h14 <= 1;
0 <= u5_t4_h15 <= 1;
0 <= u5_t4_h16 <= 1;
u5_t4_h2 + u5_t4_h3 + u5_t4_h4 + u5_t4_h5 + u5_t4_h6 + u5_t4_h7 + u5_t4_h8 + u5_t4_h9 + u5_t4_h10 + u5_t4_h11 + u5_t4_h12 + u5_t4_h13 + u5_t4_h14 + u5_t4_h15 + u5_t4_h16 = 3;
0 <= u5_t5_h16 <= 1;
0 <= u5_t5_h17 <= 1;
0 <= u5_t5_h18 <= 1;
0 <= u5_t5_h19 <= 1;
0 <= u5_t5_h20 <= 1;
0 <= u5_t5_h21 <= 1;
0 <= u5_t5_h22 <= 1;
0 <= u5_t5_h23 <= 1;
u5_t5_h16 + u5_t5_h17 + u5_t5_h18 + u5_t5_h19 + u5_t5_h20 + u5_t5_h21 + u5_t5_h22 + u5_t5_h23 = 2;
0 <= u5_t6_h6 <= 1;
0 <= u5_t6_h7 <= 1;
0 <= u5_t6_h8 <= 1;
0 <= u5_t6_h9 <= 1;
0 <= u5_t6_h10 <= 1;
0 <= u5_t6_h11 <= 1;
0 <= u5_t6_h12 <= 1;
0 <= u5_t6_h13 <= 1;
0 <= u5_t6_h14 <= 1;
0 <= u5_t6_h15 <= 1;
0 <= u5_t6_h16 <= 1;
0 <= u5_t6_h17 <= 1;
0 <= u5_t6_h18 <= 1;
u5_t6_h6 + u5_t6_h7 + u5_t6_h8 + u5_t6_h9 + u5_t6_h10 + u5_t6_h11 + u5_t6_h12 + u5_t6_h13 + u5_t6_h14 + u5_t6_h15 + u5_t6_h16 + u5_t6_h17 + u5_t6_h18 = 2;
0 <= u5_t7_h2 <= 1;
0 <= u5_t7_h3 <= 1;
0 <= u5_t7_h4 <= 1;
0 <= u5_t7_h5 <= 1;
0 <= u5_t7_h6 <= 1;
u5_t7_h2 + u5_t7_h3 + u5_t7_h4 + u5_t7_h5 + u5_t7_h6 = 1;
0 <= u5_t8_h13 <= 1;
0 <= u5_t8_h14 <= 1;
0 <= u5_t8_h15 <= 1;
0 <= u5_t8_h16 <= 1;
0 <= u5_t8_h17 <= 1;
u5_t8_h13 + u5_t8_h14 + u5_t8_h15 + u5_t8_h16 + u5_t8_h17 = 3;
0 <= u5_t9_h15 <= 1;
0 <= u5_t9_h16 <= 1;
0 <= u5_t9_h17 <= 1;
0 <= u5_t9_h18 <= 1;
0 <= u5_t9_h19 <= 1;
0 <= u5_t9_h20 <= 1;
0 <= u5_t9_h21 <= 1;
0 <= u5_t9_h22 <= 1;
0 <= u5_t9_h23 <= 1;
u5_t9_h15 + u5_t9_h16 + u5_t9_h17 + u5_t9_h18 + u5_t9_h19 + u5_t9_h20 + u5_t9_h21 + u5_t9_h22 + u5_t9_h23 = 1;
0 <= u5_t10_h17 <= 1;
0 <= u5_t10_h18 <= 1;
0 <= u5_t10_h19 <= 1;
0 <= u5_t10_h20 <= 1;
0 <= u5_t10_h21 <= 1;
0 <= u5_t10_h22 <= 1;
0 <= u5_t10_h23 <= 1;
u5_t10_h17 + u5_t10_h18 + u5_t10_h19 + u5_t10_h20 + u5_t10_h21 + u5_t10_h22 + u5_t10_h23 = 1;
